start

title "Cn1cnc2c1c(=O)n(C)c(=O)n2C"

echo
geometry Cn1cnc2c1c(=O)n(C)c(=O)n2C
   C      3.3034     0.4700    -0.0316
   N      2.1199    -0.3833    -0.0065
   C      2.0910    -1.7385     0.0201
   N      0.8309    -2.2465     0.0200
   C      0.0615    -1.1393    -0.0058
   C      0.8256    -0.0236    -0.0246
   C      0.2367     1.2328    -0.0794
   O      0.9494     2.2731    -0.1181
   N     -1.1378     1.3070    -0.0997
   C     -1.7992     2.6190    -0.1952
   C     -1.8984     0.1487    -0.1098
   O     -3.1568     0.2254    -0.1964
   N     -1.2980    -1.0901    -0.0340
   C     -2.0938    -2.3243    -0.0677
   H      3.2877     1.1586     0.8390
   H      4.2268    -0.1453     0.0192
   H      3.3195     1.0601    -0.9718
   H      2.9785    -2.3581     0.0351
   H     -1.1921     3.4149     0.2866
   H     -1.9580     2.8787    -1.2630
   H     -2.7787     2.6123     0.3290
   H     -1.5398    -3.1747     0.3840
   H     -2.3468    -2.5750    -1.1193
   H     -3.0315    -2.2019     0.5154
end


basis spherical
* library 6-311G
end

driver
  tight
  maxiter 200
  xyz final
end

dft
direct
xc pbe0
noprint "final vectors analysis" multipole
end

set geometry Cn1cnc2c1c(=O)n(C)c(=O)n2C
task dft optimize

property
   shielding
end

cosmo
   solvent cdcl3
end

task dft property
