start

title "Cn1cnc2c1c(=O)n(C)c(=O)n2C"

echo
geometry Cn1cnc2c1c(=O)n(C)c(=O)n2C
   C  3.30340846 0.47000608 -0.03161645
   N  2.11987459 -0.38333189 -0.00651515
   C  2.09103313 -1.73853009 0.02009390
   N  0.83092037 -2.24647101 0.01999569
   C  0.06149686 -1.13925158 -0.00575048
   C  0.82564883 -0.02358616 -0.02455967
   C  0.23665877 1.23279574 -0.07941249
   O  0.94939668 2.27310930 -0.11805901
   N  -1.13779613 1.30695045 -0.09965269
   C  -1.79918930 2.61904164 -0.19522062
   C  -1.89838781 0.14867362 -0.10980440
   O  -3.15683954 0.22540074 -0.19638501
   N  -1.29799185 -1.09011398 -0.03398248
   C  -2.09382770 -2.32430871 -0.06769597
   H  3.28772959 1.15863172 0.83902733
   H  4.22682917 -0.14533949 0.01918096
   H  3.31948965 1.06011126 -0.97181094
   H  2.97849185 -2.35811931 0.03505974
   H  -1.19207500 3.41490998 0.28663735
   H  -1.95803833 2.87866627 -1.26299232
   H  -2.77868989 2.61232955 0.32901053
   H  -1.53983039 -3.17473741 0.38401717
   H  -2.34679133 -2.57496642 -1.11931750
   H  -3.03152068 -2.20187033 0.51544577
end


basis spherical
* library 6-311G
end

driver
  tight
  maxiter 200
  xyz final
end

relativistic
  zora on
  zora:cutoff_NMR 1d-8
  zora:cutoff 1d-30
end

dft
  direct
  grid fine
 xc b3lyp
  mult 1
  noprint "final vectors analysis" multipole
end

set geometry Cn1cnc2c1c(=O)n(C)c(=O)n2C
task dft optimize

property
   shielding
end

cosmo
   solvent cdcl3
end

task dft property
